Maximize
  0.0135199327181753 Z_385_0_0 + 0.0730391050264787 Z_385_0_1
   + 0.044920693015595 Z_385_0_2 + 0.00314770053687691 Z_385_0_3
Subject To
 constraint1_3850: Z_385_0_0 + Z_385_0_1 + Z_385_0_2 + Z_385_0_3 <= 1
 constraint2_3850: Z_385_0_0 <= 1
 constraint2_3851: Z_385_0_1 <= 1
 constraint2_3852: Z_385_0_2 <= 1
 constraint2_3853: Z_385_0_3 <= 1
Bounds
Binaries
 Z_385_0_0 Z_385_0_1 Z_385_0_2 Z_385_0_3
End
